(set-logic HORN)
(set-info :source |
    Benchmark: C_VC
    Output by Princess (http://www.philipp.ruemmer.org/princess.shtml)
|)
(set-info :status sat)
(declare-heap Heap Addr HeapObject
 defObj
 ((HeapObject 0)) (
  (
   (O_Int (getInt Int))
   (O_UInt (getUInt Int))
   (O_Addr (getAddr Addr))
   (defObj)
  )
))
(declare-fun inv_main12 (Heap AddrRange Int Int Int) Bool)
(declare-fun inv_main20 (Heap AddrRange Int Int Int Int) Bool)
(declare-fun inv_main3 (Heap AddrRange) Bool)
(declare-fun inv_main8 (Heap AddrRange Int Int Int) Bool)
(assert (forall ((var0 AddrRange) (var1 Int) (var2 Heap) (var3 Heap)) (or (not (and (and (= var3 emptyHeap) (= var2 (newBatchHeap (batchAlloc emptyHeap (O_Int var1) 100000)))) (= var0 (newAddrRange (batchAlloc emptyHeap (O_Int var1) 100000))))) (inv_main3 var2 var0))))
(assert (forall ((var0 Int) (var1 Int) (var2 Int) (var3 Int) (var4 Int) (var5 AddrRange) (var6 Heap)) (or (not (and (inv_main20 var6 var5 var4 var3 var2 var1) (and (and (<= 0 (+ (+ var3 (* (- 1) (+ var1 1))) (- 1))) (is-O_Int (read var6 (nthAddrRange var5 var1)))) (= var0 (+ var1 1))))) (inv_main20 var6 var5 var4 var3 var2 var0))))
(assert (forall ((var0 Int) (var1 Int) (var2 Int) (var3 Int) (var4 AddrRange) (var5 Heap)) (or (not (and (inv_main8 var5 var4 var3 var2 var1) (and (and (<= 0 (+ var2 (- 1))) (not (<= 0 (+ (+ 100000 (* (- 1) var2)) (- 1))))) (= var0 0)))) (inv_main20 var5 var4 var3 var2 var1 var0))))
(assert (forall ((var0 Int) (var1 Int) (var2 Int) (var3 AddrRange) (var4 Heap) (var5 Int) (var6 Int) (var7 Int) (var8 Int) (var9 AddrRange) (var10 Heap) (var11 Int) (var12 Int) (var13 Int) (var14 Int) (var15 Int) (var16 AddrRange) (var17 Heap)) (or (not (and (inv_main8 var17 var16 var15 var14 var13) (and (and (<= 0 (+ var12 (- 1))) (and (and (= var11 0) (and (and (<= 0 (+ (+ 100000 (* (- 1) var14)) (- 1))) (is-O_Int (read var17 (nthAddrRange var16 var14)))) (and (and (and (and (and (= var10 var17) (= var9 var16)) (= var8 var15)) (= var7 var14)) (= var6 var13)) (= var5 (getInt (read var17 (nthAddrRange var16 var14))))))) (and (and (and (and (and (= var4 var10) (= var3 var9)) (= var2 var8)) (= var12 var7)) (= var1 var6)) (or (and (not (= var5 var8)) (= var11 1)) (and (= var5 var8) (= var11 0)))))) (= var0 0)))) (inv_main20 var4 var3 var2 var12 var1 var0))))
(assert (forall ((var0 Int) (var1 Int) (var2 Int) (var3 Int) (var4 AddrRange) (var5 Heap) (var6 Int) (var7 Int) (var8 Int) (var9 Int) (var10 AddrRange) (var11 Heap) (var12 Int) (var13 Int) (var14 Int) (var15 Int) (var16 AddrRange) (var17 Heap)) (or (not (and (inv_main8 var17 var16 var15 var14 var13) (and (and (and (not (= var12 0)) (and (and (<= 0 (+ (+ 100000 (* (- 1) var14)) (- 1))) (is-O_Int (read var17 (nthAddrRange var16 var14)))) (and (and (and (and (and (= var11 var17) (= var10 var16)) (= var9 var15)) (= var8 var14)) (= var7 var13)) (= var6 (getInt (read var17 (nthAddrRange var16 var14))))))) (and (and (and (and (and (= var5 var11) (= var4 var10)) (= var3 var9)) (= var2 var8)) (= var1 var7)) (or (and (not (= var6 var9)) (= var12 1)) (and (= var6 var9) (= var12 0))))) (= var0 (+ var2 1))))) (inv_main8 var5 var4 var3 var0 var1))))
(assert (forall ((var0 Int) (var1 Int) (var2 Int) (var3 AddrRange) (var4 Int) (var5 Heap) (var6 Int) (var7 Int) (var8 Int) (var9 Int) (var10 AddrRange) (var11 Heap)) (or (not (and (inv_main12 var11 var10 var9 var8 var7) (and (and (not (<= 0 (+ (+ 100000 (* (- 1) (+ var6 1))) (- 1)))) (and (and (is-O_Int (read var11 (nthAddrRange var10 var7))) (is-O_Int (read var11 (nthAddrRange var10 var7)))) (and (and (and (and (= var5 (write var11 (nthAddrRange var10 var7) (O_Int var4))) (= var3 var10)) (= var2 var9)) (= var1 var8)) (= var6 var7)))) (= var0 (+ var6 1))))) (inv_main8 var5 var3 var2 var1 var0))))
(assert (forall ((var0 Int) (var1 Int) (var2 Int) (var3 AddrRange) (var4 Int) (var5 Heap) (var6 Int) (var7 Int) (var8 Int) (var9 Int) (var10 AddrRange) (var11 Heap)) (or (not (and (inv_main12 var11 var10 var9 var8 var7) (and (and (<= 0 (+ (+ 100000 (* (- 1) (+ var6 1))) (- 1))) (and (and (is-O_Int (read var11 (nthAddrRange var10 var7))) (is-O_Int (read var11 (nthAddrRange var10 var7)))) (and (and (and (and (= var5 (write var11 (nthAddrRange var10 var7) (O_Int var4))) (= var3 var10)) (= var2 var9)) (= var1 var8)) (= var6 var7)))) (= var0 (+ var6 1))))) (inv_main12 var5 var3 var2 var1 var0))))
(assert (forall ((var0 Int) (var1 Int) (var2 Int) (var3 AddrRange) (var4 Heap)) (or (not (and (inv_main3 var4 var3) (and (= var2 0) (= var1 0)))) (inv_main12 var4 var3 var0 var2 var1))))
(assert (forall ((var0 Int) (var1 Int) (var2 Int) (var3 AddrRange) (var4 Heap)) (not (and (inv_main12 var4 var3 var2 var1 var0) (not (is-O_Int (read var4 (nthAddrRange var3 var0))))))))
(assert (forall ((var0 Int) (var1 Int) (var2 Int) (var3 AddrRange) (var4 Heap)) (not (and (inv_main12 var4 var3 var2 var1 var0) (and (is-O_Int (read var4 (nthAddrRange var3 var0))) (not (within var3 (nthAddrRange var3 var0))))))))
(assert (forall ((var0 Int) (var1 Int) (var2 Int) (var3 AddrRange) (var4 Heap)) (not (and (inv_main12 var4 var3 var2 var1 var0) (and (is-O_Int (read var4 (nthAddrRange var3 var0))) (not (is-O_Int (read var4 (nthAddrRange var3 var0)))))))))
(assert (forall ((var0 Int) (var1 Int) (var2 Int) (var3 AddrRange) (var4 Heap)) (not (and (inv_main8 var4 var3 var2 var1 var0) (and (<= 0 (+ (+ 100000 (* (- 1) var1)) (- 1))) (not (is-O_Int (read var4 (nthAddrRange var3 var1)))))))))
(assert (forall ((var0 Int) (var1 Int) (var2 Int) (var3 AddrRange) (var4 Heap)) (not (and (inv_main8 var4 var3 var2 var1 var0) (and (and (<= 0 (+ (+ 100000 (* (- 1) var1)) (- 1))) (is-O_Int (read var4 (nthAddrRange var3 var1)))) (not (within var3 (nthAddrRange var3 var1))))))))
(assert (forall ((var0 Int) (var1 Int) (var2 Int) (var3 Int) (var4 AddrRange) (var5 Heap)) (not (and (inv_main20 var5 var4 var3 var2 var1 var0) (not (is-O_Int (read var5 (nthAddrRange var4 var0))))))))
(assert (forall ((var0 Int) (var1 Int) (var2 Int) (var3 Int) (var4 AddrRange) (var5 Heap)) (not (and (inv_main20 var5 var4 var3 var2 var1 var0) (not (within var4 (nthAddrRange var4 var0)))))))
(assert (forall ((var0 Int) (var1 Int) (var2 Int) (var3 Int) (var4 AddrRange) (var5 Heap)) (not (and (inv_main20 var5 var4 var3 var2 var1 var0) (not (is-O_Int (read var5 (nthAddrRange var4 var0))))))))
(assert (forall ((var0 Int) (var1 Int) (var2 Int) (var3 Int) (var4 AddrRange) (var5 Heap)) (not (and (inv_main20 var5 var4 var3 var2 var1 var0) (and (is-O_Int (read var5 (nthAddrRange var4 var0))) (not (within var4 (nthAddrRange var4 var0))))))))
(assert (forall ((var0 Int) (var1 Int) (var2 Int) (var3 Int) (var4 AddrRange) (var5 Heap)) (not (and (inv_main20 var5 var4 var3 var2 var1 var0) (and (is-O_Int (read var5 (nthAddrRange var4 var0))) (= (getInt (read var5 (nthAddrRange var4 var0))) var3))))))
(check-sat)
